(define-fun T ((x Int)) (Int)
  (ite (= 0 (mod x 2)) (div x 2) (mod (+ 1 (* 2 x)) 8 ))
)
(declare-const a Int)
(declare-const y Int)
(assert (< a 8))
(assert (>= a 0))
(assert (= y (T (T (T a)))))
(check-sat)
(get-model)
(assert(not (= y 0)))
(check-sat)
(get-model)
(assert(not (= y 7)))
(check-sat)
(get-model)
(assert(not (= y 3)))
(check-sat)